p edge 255 254 106
e 1 140
e 1 9
e 2 69
e 2 104
e 3 53
e 4 72
e 5 141
e 5 162
e 6 189
e 6 48
e 6 186
e 6 37
e 7 209
e 8 249
e 9 241
e 9 11
e 10 174
e 10 30
e 10 249
e 11 17
e 12 209
e 13 226
e 13 181
e 14 64
e 14 27
e 15 126
e 15 165
e 16 239
e 17 134
e 18 119
e 19 249
e 20 68
e 21 197
e 21 177
e 22 242
e 22 186
e 23 106
e 23 219
e 23 163
e 24 141
e 25 234
e 26 130
e 26 250
e 26 225
e 27 179
e 28 95
e 28 139
e 29 124
e 30 167
e 31 128
e 32 65
e 33 52
e 33 154
e 34 103
e 34 247
e 35 220
e 36 156
e 37 83
e 37 210
e 37 123
e 38 120
e 38 40
e 38 139
e 39 218
e 40 153
e 41 182
e 42 44
e 43 243
e 44 87
e 45 156
e 45 166
e 45 226
e 46 254
e 47 131
e 47 154
e 48 65
e 48 238
e 49 207
e 49 99
e 50 247
e 51 188
e 51 231
e 51 58
e 52 63
e 53 87
e 54 109
e 54 225
e 54 235
e 55 162
e 56 196
e 56 142
e 57 204
e 57 222
e 57 90
e 57 134
e 58 88
e 59 136
e 60 102
e 60 144
e 61 199
e 62 143
e 62 149
e 63 208
e 64 115
e 66 160
e 66 72
e 66 136
e 67 226
e 68 127
e 69 187
e 70 88
e 71 140
e 72 237
e 72 134
e 73 138
e 74 254
e 75 88
e 76 93
e 76 90
e 77 235
e 77 206
e 78 175
e 79 139
e 80 234
e 81 198
e 81 212
e 81 169
e 82 116
e 82 118
e 82 227
e 82 155
e 84 151
e 84 176
e 84 118
e 85 142
e 86 105
e 86 133
e 86 116
e 87 253
e 88 196
e 89 239
e 89 90
e 91 191
e 92 234
e 92 104
e 92 206
e 94 202
e 94 234
e 95 113
e 96 219
e 97 128
e 98 144
e 98 183
e 99 138
e 100 121
e 100 148
e 101 246
e 103 162
e 107 136
e 107 137
e 108 129
e 109 154
e 110 213
e 110 124
e 111 175
e 111 209
e 112 188
e 114 253
e 115 172
e 115 170
e 117 199
e 117 164
e 118 125
e 119 177
e 120 128
e 122 203
e 122 191
e 123 164
e 124 146
e 127 254
e 128 214
e 129 175
e 131 209
e 132 209
e 134 205
e 135 221
e 137 229
e 137 232
e 138 159
e 139 178
e 139 251
e 139 157
e 141 200
e 141 217
e 141 206
e 142 221
e 142 193
e 143 173
e 144 169
e 145 164
e 145 152
e 146 188
e 147 185
e 148 253
e 149 223
e 150 254
e 150 224
e 152 192
e 153 155
e 153 223
e 157 165
e 158 190
e 158 219
e 159 223
e 161 236
e 162 194
e 163 240
e 163 188
e 164 183
e 165 171
e 165 179
e 165 239
e 167 246
e 168 230
e 170 216
e 173 245
e 175 215
e 177 186
e 178 243
e 179 181
e 180 249
e 180 202
e 182 246
e 184 217
e 185 186
e 187 193
e 188 195
e 190 191
e 192 252
e 192 255
e 201 239
e 208 233
e 209 244
e 211 236
e 211 242
e 214 228
e 215 218
e 220 244
e 221 253
e 224 225
e 226 247
e 230 232
e 230 255
e 231 248
